
50
126943

6821 6821
917 917
6179 6179
8420 8420
8346 8346
5151 5151
6311 6311
3693 3693
5281 5281
1079 1079
6830 6830
6007 6007
2820 2820
3786 3786
7362 7362
4439 4439
9597 9597
9713 9713
8384 8384
911 911
752 752
2886 2886
3612 3612
7050 7050
8269 8269
5627 5627
6392 6392
5731 5731
341 341
5267 5267
2133 2133
4170 4170
88 88
6558 6558
9103 9103
687 687
5801 5801
235 235
3519 3519
1593 1593
8606 8606
7281 7281
8966 8966
2180 2180
7189 7189
6995 6995
5107 5107
9162 9162
6250 6250
2829 2829
